array [1..5] of float: X_INTRODUCED_30_ = [1.5,2.0,1.5,0.5,0.1];
array [1..4] of float: X_INTRODUCED_35_ = [1.0,0.5,1.0,2.5];
array [1..5] of float: X_INTRODUCED_39_ = [1.0,2.0,1.0,0.9,0.1];
array [1..4] of float: X_INTRODUCED_42_ = [1.0,1.0,1.5,2.5];
var int: X_INTRODUCED_0_;
var int: X_INTRODUCED_1_;
var int: X_INTRODUCED_2_;
var int: X_INTRODUCED_3_;
var int: X_INTRODUCED_4_;
var float: X_INTRODUCED_5_:: is_defined_var;
var float: X_INTRODUCED_6_:: var_is_introduced:: is_defined_var;
var float: X_INTRODUCED_9_:: var_is_introduced:: is_defined_var;
var float: X_INTRODUCED_12_:: var_is_introduced:: is_defined_var;
var float: X_INTRODUCED_15_:: var_is_introduced:: is_defined_var;
var float: X_INTRODUCED_18_:: var_is_introduced:: is_defined_var;
array [1..5] of var int: produce = [X_INTRODUCED_0_,X_INTRODUCED_1_,X_INTRODUCED_2_,X_INTRODUCED_3_,X_INTRODUCED_4_];
constraint float_lin_le(X_INTRODUCED_30_,[X_INTRODUCED_6_,X_INTRODUCED_9_,X_INTRODUCED_12_,X_INTRODUCED_15_,X_INTRODUCED_18_],5000.0);
constraint float_lin_le(X_INTRODUCED_35_,[X_INTRODUCED_6_,X_INTRODUCED_12_,X_INTRODUCED_15_,X_INTRODUCED_18_],7500.0);
constraint float_lin_le(X_INTRODUCED_39_,[X_INTRODUCED_6_,X_INTRODUCED_9_,X_INTRODUCED_12_,X_INTRODUCED_15_,X_INTRODUCED_18_],4000.0);
constraint float_lin_le(X_INTRODUCED_42_,[X_INTRODUCED_6_,X_INTRODUCED_12_,X_INTRODUCED_15_,X_INTRODUCED_18_],3000.0);
constraint int_le(0,X_INTRODUCED_0_);
constraint int_le(0,X_INTRODUCED_1_);
constraint int_le(0,X_INTRODUCED_2_);
constraint int_le(0,X_INTRODUCED_3_);
constraint int_le(0,X_INTRODUCED_4_);
constraint float_lin_eq([11.0,18.0,15.0,17.0,11.0,-1.0],[X_INTRODUCED_6_,X_INTRODUCED_9_,X_INTRODUCED_12_,X_INTRODUCED_15_,X_INTRODUCED_18_,X_INTRODUCED_5_],-0.0):: defines_var(X_INTRODUCED_5_);
constraint int2float(X_INTRODUCED_0_,X_INTRODUCED_6_):: defines_var(X_INTRODUCED_6_);
constraint int2float(X_INTRODUCED_1_,X_INTRODUCED_9_):: defines_var(X_INTRODUCED_9_);
constraint int2float(X_INTRODUCED_2_,X_INTRODUCED_12_):: defines_var(X_INTRODUCED_12_);
constraint int2float(X_INTRODUCED_3_,X_INTRODUCED_15_):: defines_var(X_INTRODUCED_15_);
constraint int2float(X_INTRODUCED_4_,X_INTRODUCED_18_):: defines_var(X_INTRODUCED_18_);
solve  satisfy;
